\ENCODING=ISO-8859-1
\Problem name: 

Minimize
 cost: 1.84 x0 + 2.19 x1 + 1.84 x2 + 1.44 x3 + 2.29 x4 + 0.77 x5 + 1.29 x6
       + 0.6 x7 + 0.72 x8
Subject To
 r0: 510 x0 + 370 x1 + 500 x2 + 370 x3 + 400 x4 + 220 x5 + 345 x6 + 110 x7
     + 80 x8 - Rgr0  = 2000
 r1: 34 x0 + 35 x1 + 42 x2 + 38 x3 + 42 x4 + 26 x5 + 27 x6 + 12 x7 + 20 x8
     - Rgr1  = 350
 r2: 28 x0 + 24 x1 + 25 x2 + 14 x3 + 31 x4 + 3 x5 + 15 x6 + 9 x7 + x8 - Rgr2
      = 55
 r3: 15 x0 + 15 x1 + 6 x2 + 2 x3 + 8 x4 + 4 x6 + 10 x7 + 2 x8 - Rgr3  = 100
 r4: 6 x0 + 10 x1 + 2 x2 + 15 x4 + 15 x5 + 4 x7 + 120 x8 - Rgr4  = 100
 r5: 30 x0 + 20 x1 + 25 x2 + 15 x3 + 15 x4 + 20 x6 + 30 x7 + 2 x8 - Rgr5  = 100
 r6: 20 x0 + 20 x1 + 20 x2 + 10 x3 + 8 x4 + 2 x5 + 15 x6 + 2 x8 - Rgr6  = 100
Bounds
 0 <= x0 <= 10
 0 <= x1 <= 10
 0 <= x2 <= 10
 0 <= x3 <= 10
 0 <= x4 <= 10
 0 <= x5 <= 10
 0 <= x6 <= 10
 0 <= x7 <= 10
 0 <= x8 <= 10
 0 <= Rgr0 <= 7999
 0 <= Rgr1 <= 25
 0 <= Rgr2 <= 9944
 0 <= Rgr3 <= 9899
 0 <= Rgr4 <= 9899
 0 <= Rgr5 <= 9899
 0 <= Rgr6 <= 9899
End
